(set-logic HORN)
(declare-fun state (Int (Array Int Int) (Array Int Int) (Array Int Int) (Array Int Int) Int Int (Array Int Int) (Array Int Int) Int Int Int Int Int Int Int Int Int Int Int Int Int Int Int Int Int Int Int Int Int Int Int Int Int Int Int Int Int Int Int Int Int Int Int Int Int Int Int Int Int Int Int Int Int Int Int Int Int Int Int Int Int Bool Bool Bool Bool Bool Bool (Array Int Int)) Bool)
(assert (forall ((|A_58| Int) (|B_58| (Array Int Int)) (|C_58| (Array Int Int)) (|D_58| (Array Int Int)) (|E_58| (Array Int Int)) (|F_58| Int) (|G_58| Int) (|H_58| (Array Int Int)) (|I_58| (Array Int Int)) (|J_58| Int) (|K_58| Int) (|L_58| Int) (|M_58| Int) (|N_58| Int) (|O_58| Int) (|P_58| Int) (|Q_58| Int) (|R_58| Int) (|S_58| Int) (|T_58| Int) (|U_58| Int) (|V_58| Int) (|W_58| Int) (|X_58| Int) (|Y_58| Int) (|Z_58| Int) (|A1_58| Int) (|B1_58| Int) (|C1_58| Int) (|D1_58| Int) (|E1_58| Int) (|F1_58| Int) (|G1_58| Int) (|H1_58| Int) (|I1_58| Int) (|J1_58| Int) (|K1_58| Int) (|L1_58| Int) (|M1_58| Int) (|N1_58| Int) (|O1_58| Int) (|P1_58| Int) (|Q1_58| Int) (|R1_58| Int) (|S1_58| Int) (|T1_58| Int) (|U1_58| Int) (|V1_58| Int) (|W1_58| Int) (|X1_58| Int) (|Y1_58| Int) (|Z1_58| Int) (|A2_58| Int) (|B2_58| Int) (|C2_58| Int) (|D2_58| Int) (|E2_58| Int) (|F2_58| Int) (|G2_58| Int) (|H2_58| Int) (|I2_58| Int) (|J2_58| Int) (|L2_34| Bool) (|.loc.6| Bool) (|.loc.7| Bool) (|.loc.8| Bool) (|.loc.9| Bool) (|.loc.10| Bool) (|L2_0| (Array Int Int)) (|.x.3597| Int) (|.x.3595| (Array Int Int)) (|.x.3593| Int) (|.x.3591| (Array Int Int)) (|.x.3587| Int) (|.x.3589| (Array Int Int)) (|.x.3588| (Array Int Int)) (|K2_58| Bool) (|.x.3598| Int) (|.x.3599| Int) (|.x.3600| Int) (|.x.3605| Int) (|.x.3606| Int) (|.x.3608| Int) (|.x.3609| Int) (|.x.3615| Int) (|.x.3616| Int) (|.x.3617| Int) (|.x.3618| Int) (|.x.3620| Int) (|.x.3623| Int) (|.x.3629| Int) (|.x.3630| Int) (|.x.3631| Int) (|.x.3632| Int) (|.x.3633| Int) (|.x.3635| Int) (|.x.3643| Int) (|.x.3644| Int) (|.x.3645| Int) (|.loc.12| Bool) (|.x.3621| Int) (|.x.3602| Int) (|.x.3624| Int) (|.x.3646| Int) (|.loc.14| Bool) (|.loc.11| Bool) (|.loc.13| Bool) (|.x.3640| Int) (|.x.3603| Int) (|.x.3625| Int) (|.x.3590| (Array Int Int)) (|.x.3636| Int) (|.x.3638| Int) (|.loc.15| Bool) (|.x.3637| Int) (|.x.3610| Int) (|.x.3641| Int) (|.x.3612| Int) (|.x.3639| Int) (|.x.3611| Int) (|.x.3634| Int) (|.x.3614| Int) (|.x.3619| Int) (|.x.3613| Int) (|.x.3642| Int) (|.x.3627| Int) (|.x.3647| Int) (|.x.3628| Int) (|.x.3648| Int) (|.x.3626| Int) (|.x.3622| Int) (|.x.3607| Int) (|.x.3601| Int) (|.x.3604| Int) (|.x.3596| Int) (|.x.3592| Int) (|.x.3594| (Array Int Int)) (|.xtv.1| (Array Int Int))) (=> (and (and (and (and (and .loc.6 (not .loc.7)) (not .loc.8)) (not .loc.9)) (not .loc.10)) (and (and (and (and (and (= D_58 E_58) (not L2_34)) (= F_58 G_58)) (= J_58 K_58)) (= H_58 I_58)) (= B_58 C_58))) (state |A_58| |B_58| |C_58| |D_58| |E_58| |F_58| |G_58| |H_58| |I_58| |J_58| |K_58| |L_58| |M_58| |N_58| |O_58| |P_58| |Q_58| |R_58| |S_58| |T_58| |U_58| |V_58| |W_58| |X_58| |Y_58| |Z_58| |A1_58| |B1_58| |C1_58| |D1_58| |E1_58| |F1_58| |G1_58| |H1_58| |I1_58| |J1_58| |K1_58| |L1_58| |M1_58| |N1_58| |O1_58| |P1_58| |Q1_58| |R1_58| |S1_58| |T1_58| |U1_58| |V1_58| |W1_58| |X1_58| |Y1_58| |Z1_58| |A2_58| |B2_58| |C2_58| |D2_58| |E2_58| |F2_58| |G2_58| |H2_58| |I2_58| |J2_58| |L2_34| |.loc.6| |.loc.7| |.loc.8| |.loc.9| |.loc.10| |L2_0|))))
(assert (forall ((|A_58| Int) (|B_58| (Array Int Int)) (|C_58| (Array Int Int)) (|D_58| (Array Int Int)) (|E_58| (Array Int Int)) (|F_58| Int) (|G_58| Int) (|H_58| (Array Int Int)) (|I_58| (Array Int Int)) (|J_58| Int) (|K_58| Int) (|L_58| Int) (|M_58| Int) (|N_58| Int) (|O_58| Int) (|P_58| Int) (|Q_58| Int) (|R_58| Int) (|S_58| Int) (|T_58| Int) (|U_58| Int) (|V_58| Int) (|W_58| Int) (|X_58| Int) (|Y_58| Int) (|Z_58| Int) (|A1_58| Int) (|B1_58| Int) (|C1_58| Int) (|D1_58| Int) (|E1_58| Int) (|F1_58| Int) (|G1_58| Int) (|H1_58| Int) (|I1_58| Int) (|J1_58| Int) (|K1_58| Int) (|L1_58| Int) (|M1_58| Int) (|N1_58| Int) (|O1_58| Int) (|P1_58| Int) (|Q1_58| Int) (|R1_58| Int) (|S1_58| Int) (|T1_58| Int) (|U1_58| Int) (|V1_58| Int) (|W1_58| Int) (|X1_58| Int) (|Y1_58| Int) (|Z1_58| Int) (|A2_58| Int) (|B2_58| Int) (|C2_58| Int) (|D2_58| Int) (|E2_58| Int) (|F2_58| Int) (|G2_58| Int) (|H2_58| Int) (|I2_58| Int) (|J2_58| Int) (|L2_34| Bool) (|.loc.6| Bool) (|.loc.7| Bool) (|.loc.8| Bool) (|.loc.9| Bool) (|.loc.10| Bool) (|L2_0| (Array Int Int)) (|.x.3597| Int) (|.x.3595| (Array Int Int)) (|.x.3593| Int) (|.x.3591| (Array Int Int)) (|.x.3587| Int) (|.x.3589| (Array Int Int)) (|.x.3588| (Array Int Int)) (|K2_58| Bool) (|.x.3598| Int) (|.x.3599| Int) (|.x.3600| Int) (|.x.3605| Int) (|.x.3606| Int) (|.x.3608| Int) (|.x.3609| Int) (|.x.3615| Int) (|.x.3616| Int) (|.x.3617| Int) (|.x.3618| Int) (|.x.3620| Int) (|.x.3623| Int) (|.x.3629| Int) (|.x.3630| Int) (|.x.3631| Int) (|.x.3632| Int) (|.x.3633| Int) (|.x.3635| Int) (|.x.3643| Int) (|.x.3644| Int) (|.x.3645| Int) (|.loc.12| Bool) (|.x.3621| Int) (|.x.3602| Int) (|.x.3624| Int) (|.x.3646| Int) (|.loc.14| Bool) (|.loc.11| Bool) (|.loc.13| Bool) (|.x.3640| Int) (|.x.3603| Int) (|.x.3625| Int) (|.x.3590| (Array Int Int)) (|.x.3636| Int) (|.x.3638| Int) (|.loc.15| Bool) (|.x.3637| Int) (|.x.3610| Int) (|.x.3641| Int) (|.x.3612| Int) (|.x.3639| Int) (|.x.3611| Int) (|.x.3634| Int) (|.x.3614| Int) (|.x.3619| Int) (|.x.3613| Int) (|.x.3642| Int) (|.x.3627| Int) (|.x.3647| Int) (|.x.3628| Int) (|.x.3648| Int) (|.x.3626| Int) (|.x.3622| Int) (|.x.3607| Int) (|.x.3601| Int) (|.x.3604| Int) (|.x.3596| Int) (|.x.3592| Int) (|.x.3594| (Array Int Int)) (|.xtv.1| (Array Int Int))) (=> (and (state |A_58| |B_58| |C_58| |D_58| |E_58| |F_58| |G_58| |H_58| |I_58| |J_58| |K_58| |L_58| |M_58| |N_58| |O_58| |P_58| |Q_58| |R_58| |S_58| |T_58| |U_58| |V_58| |W_58| |X_58| |Y_58| |Z_58| |A1_58| |B1_58| |C1_58| |D1_58| |E1_58| |F1_58| |G1_58| |H1_58| |I1_58| |J1_58| |K1_58| |L1_58| |M1_58| |N1_58| |O1_58| |P1_58| |Q1_58| |R1_58| |S1_58| |T1_58| |U1_58| |V1_58| |W1_58| |X1_58| |Y1_58| |Z1_58| |A2_58| |B2_58| |C2_58| |D2_58| |E2_58| |F2_58| |G2_58| |H2_58| |I2_58| |J2_58| |L2_34| |.loc.6| |.loc.7| |.loc.8| |.loc.9| |.loc.10| |L2_0|) (let ((.def_79 (not .loc.7))) (let ((.def_81 (not .loc.8))) (let ((.def_83 (not .loc.9))) (let ((.def_85 (not .loc.10))) (let ((.def_117 (= B_58 .x.3588))) (let ((.def_121 (= L_58 .x.3598))) (let ((.def_124 (= M_58 .x.3599))) (let ((.def_127 (= N_58 .x.3600))) (let ((.def_130 (= S_58 .x.3605))) (let ((.def_133 (= T_58 .x.3606))) (let ((.def_136 (= V_58 .x.3608))) (let ((.def_139 (= W_58 .x.3609))) (let ((.def_142 (= C1_58 .x.3615))) (let ((.def_145 (= D1_58 .x.3616))) (let ((.def_148 (= E1_58 .x.3617))) (let ((.def_151 (= F1_58 .x.3618))) (let ((.def_154 (= H1_58 .x.3620))) (let ((.def_157 (= K1_58 .x.3623))) (let ((.def_160 (= Q1_58 .x.3629))) (let ((.def_163 (= R1_58 .x.3630))) (let ((.def_166 (= S1_58 .x.3631))) (let ((.def_169 (= T1_58 .x.3632))) (let ((.def_172 (= U1_58 .x.3633))) (let ((.def_175 (= W1_58 .x.3635))) (let ((.def_178 (= E2_58 .x.3643))) (let ((.def_181 (= F2_58 .x.3644))) (let ((.def_184 (= G2_58 .x.3645))) (let ((.def_186 (not .loc.6))) (let ((.def_206 (= L2_34 K2_58))) (let ((.def_215 (= L1_58 0))) (let ((.def_219 (and .def_127 (and .def_124 (and .def_117 .def_121))))) (let ((.def_229 (and .def_157 (and .def_154 (and .def_151 (and .def_148 (and .def_145 (and .def_142 (and .def_139 (and .def_136 (and .def_133 (and .def_130 .def_219)))))))))))) (let ((.def_238 (and .def_184 (and .def_181 (and .def_178 (and .def_175 (and .def_172 (and .def_169 (and .def_166 (and .def_163 (and .def_160 .def_229))))))))))) (let ((.def_243 (not .loc.12))) (let ((.def_249 (= I1_58 .x.3621))) (let ((.def_251 (= P_58 .x.3602))) (let ((.def_254 (= L1_58 .x.3624))) (let ((.def_257 (= H2_58 .x.3646))) (let ((.def_262 (not .loc.11))) (let ((.def_265 (not .loc.13))) (let ((.def_272 (select D_58 L_58))) (let ((.def_276 (select D_58 E1_58))) (let ((.def_280 (<= 100000 B2_58))) (let ((.def_299 (not .loc.14))) (let ((.def_304 (= B2_58 .x.3640))) (let ((.def_306 (= Q_58 .x.3603))) (let ((.def_345 (and .def_139 (and .def_136 (and .def_133 (and .def_130 (and .def_306 (and .def_219 .def_251)))))))) (let ((.def_353 (and .def_254 (and .def_157 (and .def_249 (and .def_154 (and .def_151 (and .def_148 (and .def_145 (and .def_142 .def_345)))))))))) (let ((.def_359 (and .def_175 (and .def_172 (and .def_169 (and .def_166 (and .def_163 (and .def_160 .def_353)))))))) (let ((.def_376 (and L2_34 .def_117))) (let ((.def_404 (and .def_257 (and .def_184 (and .def_181 (and .def_178 (and .def_304 (and .def_175 (and .def_172 (and .def_169 (and .def_166 (and .def_163 (and .def_160 (and .def_254 (and .def_157 (and .def_249 (and .def_154 (and .def_151 (and .def_148 (and .def_145 (and .def_142 (and .def_139 (and .def_136 (and .def_133 (and .def_130 (and .def_306 (and .def_251 (and .def_127 (and .def_124 (and .def_121 .def_376)))))))))))))))))))))))))))))) (let ((.def_421 (and .def_257 (and .def_184 (and .def_181 (and .def_178 (and .def_304 .def_359))))))) (let ((.def_448 (and .def_79 (and .def_186 (and .loc.10 (and .loc.8 .def_421)))))) (let ((.def_455 (<= 100000 Z1_58))) (let ((.def_456 (or L2_34 .def_455))) (let ((.def_460 (= M1_58 .x.3625))) (let ((.def_462 (= D_58 .x.3590))) (let ((.def_465 (= X1_58 .x.3636))) (let ((.def_468 (= Z1_58 .x.3638))) (let ((.def_471 (* 4 Z1_58))) (let ((.def_479 (not .def_455))) (let ((.def_491 (or K2_58 (= (+ Z1_58 (* (- 1) .x.3638)) (- 1))))) (let ((.def_508 (and .def_139 (and .def_136 (and .def_133 (and .def_130 (and .def_306 (and .def_251 (and .def_127 (and .def_124 (and .def_121 (and .def_117 .def_462)))))))))))) (let ((.def_524 (and .def_465 (and .def_175 (and .def_172 (and .def_169 (and .def_166 (and .def_163 (and .def_160 (and .def_460 (and .def_254 (and .def_157 (and .def_249 (and .def_154 (and .def_151 (and .def_148 (and .def_145 (and .def_142 .def_508)))))))))))))))))) (let ((.def_530 (and .def_257 (and .def_184 (and .def_181 (and .def_178 (and .def_304 (and .def_468 .def_524)))))))) (let ((.def_541 (not .loc.15))) (let ((.def_554 (and .def_139 (and .def_136 (and .def_133 (and .def_130 (and .def_306 (and .def_251 (and .def_127 (and .def_124 (and .def_121 (and .def_376 .def_462)))))))))))) (let ((.def_576 (and .def_257 (and .def_184 (and .def_181 (and .def_178 (and .def_304 (and .def_468 (and .def_465 (and .def_175 (and .def_172 (and .def_169 (and .def_166 (and .def_163 (and .def_160 (and .def_460 (and .def_254 (and .def_157 (and .def_249 (and .def_154 (and .def_151 (and .def_148 (and .def_145 (and .def_142 .def_554)))))))))))))))))))))))) (let ((.def_606 (or L2_34 (= .x.3638 0)))) (let ((.def_635 (= Y1_58 .x.3637))) (let ((.def_637 (= X_58 .x.3610))) (let ((.def_641 (select D_58 F2_58))) (let ((.def_675 (and .def_508 .def_637))) (let ((.def_692 (and .def_635 (and .def_465 (and .def_175 (and .def_172 (and .def_169 (and .def_166 (and .def_163 (and .def_160 (and .def_460 (and .def_254 (and .def_157 (and .def_249 (and .def_154 (and .def_151 (and .def_148 (and .def_145 (and .def_142 .def_675))))))))))))))))))) (let ((.def_711 (and .def_554 .def_637))) (let ((.def_767 (= C2_58 .x.3641))) (let ((.def_769 (= Z_58 .x.3612))) (let ((.def_773 (select D_58 T1_58))) (let ((.def_780 (and .def_345 .def_637))) (let ((.def_834 (and .def_635 (and .def_465 (and .def_175 (and .def_172 (and .def_169 (and .def_166 (and .def_163 (and .def_160 (and .def_460 (and .def_254 (and .def_157 (and .def_249 (and .def_154 (and .def_151 (and .def_148 (and .def_145 (and .def_142 (and .def_675 .def_769)))))))))))))))))))) (let ((.def_912 (= A2_58 .x.3639))) (let ((.def_914 (= Y_58 .x.3611))) (let ((.def_918 (select D_58 T_58))) (let ((.def_965 (and .def_769 (and .def_675 .def_914)))) (let ((.def_982 (and .def_635 (and .def_465 (and .def_175 (and .def_172 (and .def_169 (and .def_166 (and .def_163 (and .def_160 (and .def_460 (and .def_254 (and .def_157 (and .def_249 (and .def_154 (and .def_151 (and .def_148 (and .def_145 (and .def_142 .def_965))))))))))))))))))) (let ((.def_1004 (and .def_769 (and .def_711 .def_914)))) (let ((.def_1064 (= V1_58 .x.3634))) (let ((.def_1066 (= B1_58 .x.3614))) (let ((.def_1070 (select D_58 D1_58))) (let ((.def_1078 (and .def_769 (and .def_780 .def_914)))) (let ((.def_1135 (and .def_635 (and .def_465 (and .def_175 (and .def_1064 (and .def_172 (and .def_169 (and .def_166 (and .def_163 (and .def_160 (and .def_460 (and .def_254 (and .def_157 (and .def_249 (and .def_154 (and .def_151 (and .def_148 (and .def_145 (and .def_142 (and .def_965 .def_1066))))))))))))))))))))) (let ((.def_1217 (= G1_58 .x.3619))) (let ((.def_1219 (= A1_58 .x.3613))) (let ((.def_1223 (select D_58 S1_58))) (let ((.def_1281 (and .def_460 (and .def_254 (and .def_157 (and .def_249 (and .def_154 (and .def_1217 (and .def_151 (and .def_148 (and .def_145 (and .def_142 (and .def_1066 (and .def_965 .def_1219)))))))))))))) (let ((.def_1290 (and .def_635 (and .def_465 (and .def_175 (and .def_1064 (and .def_172 (and .def_169 (and .def_166 (and .def_163 (and .def_160 .def_1281))))))))))) (let ((.def_1322 (and .def_460 (and .def_254 (and .def_157 (and .def_249 (and .def_154 (and .def_1217 (and .def_151 (and .def_148 (and .def_145 (and .def_142 (and .def_1066 (and .def_1004 .def_1219)))))))))))))) (let ((.def_1374 (= D2_58 .x.3642))) (let ((.def_1376 (= O1_58 .x.3627))) (let ((.def_1380 (select D_58 N_58))) (let ((.def_1398 (and .def_460 (and .def_254 (and .def_157 (and .def_249 (and .def_154 (and .def_1217 (and .def_151 (and .def_148 (and .def_145 (and .def_142 (and .def_1066 (and .def_1078 .def_1219)))))))))))))) (let ((.def_1429 (and .def_1281 .def_1376))) (let ((.def_1438 (and .def_635 (and .def_465 (and .def_175 (and .def_1064 (and .def_172 (and .def_169 (and .def_166 (and .def_163 (and .def_160 .def_1429))))))))))) (let ((.def_1460 (and .def_1322 .def_1376))) (let ((.def_1514 (= I2_58 .x.3647))) (let ((.def_1516 (= P1_58 .x.3628))) (let ((.def_1520 (select D_58 R1_58))) (let ((.def_1527 (and .def_1376 .def_1398))) (let ((.def_1568 (and .def_635 (and .def_465 (and .def_175 (and .def_1064 (and .def_172 (and .def_169 (and .def_166 (and .def_163 (and .def_160 (and .def_1429 .def_1516)))))))))))) (let ((.def_1647 (= J2_58 .x.3648))) (let ((.def_1649 (= N1_58 .x.3626))) (let ((.def_1703 (and .def_635 (and .def_465 (and .def_175 (and .def_1064 (and .def_172 (and .def_169 (and .def_166 (and .def_163 (and .def_160 (and .def_1516 (and .def_1376 (and .def_1281 .def_1649)))))))))))))) (let ((.def_1762 (<= 100000 O_58))) (let ((.def_1805 (store D_58 E1_58 (store .def_276 (+ (* 4 O_58) F1_58) J1_58)))) (let ((.def_1966 (store L2_0 .x.3617 1))) (let ((.def_1967 (store .def_1966 .x.3630 1))) (let ((.def_1968 (store .def_1967 .x.3600 1))) (let ((.def_1969 (store .def_1968 .x.3631 1))) (let ((.def_1970 (store .def_1969 .x.3616 1))) (let ((.def_1974 (store .def_1970 .x.3606 1))) (let ((.def_1978 (store .def_1974 .x.3632 1))) (let ((.def_1982 (store .def_1978 .x.3644 1))) (let ((.def_1983 (store .def_1982 .x.3608 1))) (and (and (= K_58 .x.3597) (and (= I_58 .x.3595) (and (= G_58 .x.3593) (and (= E_58 .x.3591) (and (= A_58 .x.3587) (= C_58 .x.3589)))))) (or (and (or (and (or (or (or (or (and (or (or (or (or (and (or (or (or (or (and (or (or (or (or (and (or (or (or (or (and (or (or (or (or (and (or (or (or (or (and (or (or (or (or (and (or (or (or (or (or (and (or (and (or (or (or (or (or (or (and (or (and (or (and (or (and (and (and (and (and (and (and (and (and (and (and (and (and (and (and (and (and (and (and (and (and (and (and (and .def_117 K2_58) .def_121) .def_124) .def_127) .def_130) .def_133) .def_136) .def_139) .def_142) .def_145) .def_148) .def_151) .def_154) .def_157) .def_160) .def_163) .def_166) .def_169) .def_172) .def_175) .def_178) .def_181) .def_184) .def_186) (and (or L2_34 (and (= .x.3645 0) (= .x.3588 (store (store (store (store (store (store (store (store (store (store B_58 E1_58 0) R1_58 0) N_58 0) S1_58 0) D1_58 0) T_58 0) T1_58 0) F2_58 0) V_58 0) L_58 0)))) (and (and .loc.6 (or K2_58 (= .x.3620 .x.3645))) .def_206))) (and (and .def_81 (and .loc.9 .def_79)) .loc.12)) (and (or L2_34 .def_215) (and .def_83 (and (and .def_206 (and .loc.8 (and .loc.7 (and .loc.6 .def_238)))) .def_243)))) (and (and (and (and (and (and .def_249 .def_251) .def_254) .def_257) .loc.14) .def_262) .def_265)) (and (or L2_34 (and (= .x.3624 .x.3646) (and (= .x.3602 (select .def_272 (+ C1_58 (* 4 B2_58)))) (and (= .x.3621 (select .def_276 (+ F1_58 (* 4 B2_58)))) (and (not .def_280) (= .x.3646 (ite (= .x.3621 .x.3602) 1 0))))))) (and (and .def_83 (and .def_206 (and .loc.13 (and .loc.12 (and .loc.11 (and .def_186 (and .loc.8 (and .loc.7 .def_238)))))))) .def_299))) (and .loc.10 (and .def_304 .def_306))) (and (or K2_58 (= (+ B2_58 (* (- 1) .x.3640)) (- 1))) (and .def_85 (and .def_299 (and .def_83 (and .def_206 (and .def_262 (and .loc.13 (and .loc.12 (and .def_81 (and .def_79 (and .def_186 (and .def_257 (and .def_184 (and .def_181 (and .def_178 (and .def_175 (and .def_172 (and .def_169 (and .def_166 (and .def_163 (and .def_160 (and .def_229 .def_254))))))))))))))))))))))) (and (or L2_34 (= .x.3640 0)) (and .def_299 (and .def_83 (and .def_206 (and .def_262 (and .loc.13 (and .loc.12 (and .def_79 (and .loc.10 (and .loc.8 (and .loc.6 (and .def_257 (and .def_184 (and .def_181 (and .def_178 .def_359)))))))))))))))) (and .def_83 (and .def_243 (and .def_206 (and .def_265 (and .loc.14 (and .loc.11 (and .def_186 (and .loc.10 (and .loc.8 (and .loc.7 .def_404))))))))))) (and (or L2_34 .def_280) (and .def_83 (and .def_243 (and .def_206 (and .def_265 (and .loc.14 (and .loc.11 (and .def_186 (and .loc.10 (and .loc.8 (and .loc.7 .def_421)))))))))))) (and .def_299 (and .def_83 (and .def_243 (and .def_206 (and .loc.13 (and .loc.11 (and .def_79 (and .def_186 (and .loc.10 (and .loc.8 .def_404))))))))))) (and (and .def_299 (and .def_83 (and .def_243 (and .def_206 (and .loc.13 (and .loc.11 .def_448)))))) .def_456)) (and (and (and .def_460 .def_462) .def_465) .def_468)) (and (or L2_34 (and (= .x.3590 (store D_58 L_58 (store .def_272 (+ C1_58 .def_471) (select (select D_58 V_58) (+ K1_58 .def_471))))) .def_479)) (and (and .def_299 (and .def_83 (and .def_243 (and .def_206 (and .def_262 (and .loc.13 .def_448)))))) .def_491))) .loc.15) (and (or L2_34 (not .def_215)) (and (and .def_299 (and .def_83 (and .def_243 (and .def_206 (and .def_265 (and .def_262 (and .loc.10 (and .loc.8 (and .loc.7 (and .loc.6 .def_530)))))))))) .def_541))) (and .def_541 (and .def_299 (and .def_243 (and .def_206 (and .def_265 (and .def_262 (and .def_81 (and .def_79 (and .def_186 (and .loc.10 (and .loc.9 .def_576)))))))))))) (and (and .def_299 (and .def_83 (and .def_243 (and .def_206 (and .def_262 (and .loc.15 (and .loc.13 (and .def_81 (and .loc.10 (and .loc.7 (and .loc.6 (and .def_257 (and .def_184 (and .def_181 (and .def_178 (and .def_304 .def_524)))))))))))))))) .def_606)) (and .def_299 (and .def_83 (and .def_206 (and .def_265 (and .loc.15 (and .loc.12 (and .loc.11 (and .def_81 (and .def_186 (and .loc.10 (and .loc.7 .def_576)))))))))))) (and .def_456 (and .def_299 (and .def_83 (and .def_206 (and .def_265 (and .loc.15 (and .loc.12 (and .loc.11 (and .def_81 (and .def_186 (and .loc.10 (and .loc.7 .def_530))))))))))))) (and .def_635 .def_637)) (and (or L2_34 (and .def_479 (= .x.3590 (store D_58 L_58 (store .def_272 (+ C1_58 .def_471) (select .def_641 (+ W_58 .def_471))))))) (and .def_491 (and .def_299 (and .def_83 (and .def_206 (and .def_265 (and .def_262 (and .loc.15 (and .loc.12 (and .def_81 (and .def_186 (and .loc.10 (and .loc.7 (and .def_257 (and .def_184 (and .def_181 (and .def_178 (and .def_304 (and .def_465 (and .def_175 (and .def_172 (and .def_169 (and .def_166 (and .def_163 (and .def_160 (and .def_353 .def_460))))))))))))))))))))))))))) (and .def_606 (and .def_299 (and .def_83 (and .def_206 (and .def_265 (and .def_262 (and .loc.15 (and .loc.12 (and .def_81 (and .def_79 (and .loc.10 (and .loc.6 (and .def_257 (and .def_184 (and .def_181 (and .def_178 (and .def_304 .def_692)))))))))))))))))) (and .def_299 (and .def_83 (and .def_243 (and .def_206 (and .def_265 (and .loc.15 (and .loc.11 (and .def_81 (and .def_79 (and .def_186 (and .loc.10 (and .def_257 (and .def_184 (and .def_181 (and .def_178 (and .def_304 (and .def_468 (and .def_635 (and .def_465 (and .def_175 (and .def_172 (and .def_169 (and .def_166 (and .def_163 (and .def_160 (and .def_460 (and .def_254 (and .def_157 (and .def_249 (and .def_154 (and .def_151 (and .def_148 (and .def_145 (and .def_142 .def_711))))))))))))))))))))))))))))))))))) (and .def_456 (and .def_299 (and .def_83 (and .def_243 (and .def_206 (and .def_265 (and .loc.15 (and .loc.11 (and .def_81 (and .def_79 (and .def_186 (and .loc.10 (and .def_257 (and .def_184 (and .def_181 (and .def_178 (and .def_304 (and .def_468 .def_692))))))))))))))))))) (and .def_767 .def_769)) (and (or L2_34 (and .def_479 (= .x.3590 (store D_58 F2_58 (store .def_641 (+ W_58 .def_471) (select .def_773 (+ U1_58 .def_471))))))) (and .def_491 (and .def_299 (and .def_83 (and .def_243 (and .def_206 (and .def_265 (and .def_262 (and .loc.15 (and .def_81 (and .def_79 (and .def_186 (and .loc.10 (and .def_257 (and .def_184 (and .def_181 (and .def_178 (and .def_304 (and .def_635 (and .def_465 (and .def_175 (and .def_172 (and .def_169 (and .def_166 (and .def_163 (and .def_160 (and .def_460 (and .def_254 (and .def_157 (and .def_249 (and .def_154 (and .def_151 (and .def_148 (and .def_145 (and .def_142 .def_780)))))))))))))))))))))))))))))))))))) (and .def_606 (and .def_85 (and .def_299 (and .def_243 (and .def_206 (and .def_265 (and .def_262 (and .loc.15 (and .loc.9 (and .loc.8 (and .loc.7 (and .loc.6 (and .def_257 (and .def_184 (and .def_181 (and .def_178 (and .def_767 (and .def_304 .def_834))))))))))))))))))) (and .def_541 (and .def_85 (and .def_206 (and .loc.14 (and .loc.13 (and .loc.12 (and .loc.11 (and .def_186 (and .loc.9 (and .loc.8 (and .loc.7 (and .def_257 (and .def_184 (and .def_181 (and .def_178 (and .def_767 (and .def_304 (and .def_468 (and .def_635 (and .def_465 (and .def_175 (and .def_172 (and .def_169 (and .def_166 (and .def_163 (and .def_160 (and .def_460 (and .def_254 (and .def_157 (and .def_249 (and .def_154 (and .def_151 (and .def_148 (and .def_145 (and .def_142 (and .def_711 .def_769))))))))))))))))))))))))))))))))))))) (and .def_541 (and .def_456 (and .def_85 (and .def_206 (and .loc.14 (and .loc.13 (and .loc.12 (and .loc.11 (and .def_186 (and .loc.9 (and .loc.8 (and .loc.7 (and .def_257 (and .def_184 (and .def_181 (and .def_178 (and .def_767 (and .def_304 (and .def_468 .def_834)))))))))))))))))))) (and .def_912 .def_914)) (and (or L2_34 (and .def_479 (= .x.3590 (store D_58 T1_58 (store .def_773 (+ U1_58 .def_471) (select .def_918 (+ .def_471 E2_58))))))) (and .def_541 (and .def_491 (and .def_85 (and .def_206 (and .def_262 (and .loc.14 (and .loc.13 (and .loc.12 (and .def_186 (and .loc.9 (and .loc.8 (and .loc.7 (and .def_257 (and .def_184 (and .def_181 (and .def_178 (and .def_767 (and .def_304 (and .def_635 (and .def_465 (and .def_175 (and .def_172 (and .def_169 (and .def_166 (and .def_163 (and .def_160 (and .def_460 (and .def_254 (and .def_157 (and .def_249 (and .def_154 (and .def_151 (and .def_148 (and .def_145 (and .def_142 (and .def_769 .def_780)))))))))))))))))))))))))))))))))))))) (and .def_606 (and .def_541 (and .def_85 (and .def_206 (and .def_262 (and .loc.14 (and .loc.13 (and .loc.12 (and .def_79 (and .loc.9 (and .loc.8 (and .loc.6 (and .def_257 (and .def_184 (and .def_181 (and .def_178 (and .def_767 (and .def_304 (and .def_912 .def_982)))))))))))))))))))) (and .def_541 (and .def_85 (and .def_243 (and .def_206 (and .loc.14 (and .loc.13 (and .loc.11 (and .def_79 (and .def_186 (and .loc.9 (and .loc.8 (and .def_257 (and .def_184 (and .def_181 (and .def_178 (and .def_767 (and .def_304 (and .def_912 (and .def_468 (and .def_635 (and .def_465 (and .def_175 (and .def_172 (and .def_169 (and .def_166 (and .def_163 (and .def_160 (and .def_460 (and .def_254 (and .def_157 (and .def_249 (and .def_154 (and .def_151 (and .def_148 (and .def_145 (and .def_142 .def_1004))))))))))))))))))))))))))))))))))))) (and .def_541 (and .def_456 (and .def_85 (and .def_243 (and .def_206 (and .loc.14 (and .loc.13 (and .loc.11 (and .def_79 (and .def_186 (and .loc.9 (and .loc.8 (and .def_257 (and .def_184 (and .def_181 (and .def_178 (and .def_767 (and .def_304 (and .def_912 (and .def_468 .def_982))))))))))))))))))))) (and .def_1064 .def_1066)) (and (or L2_34 (and .def_479 (= .x.3590 (store D_58 T_58 (store .def_918 (+ .def_471 E2_58) (select .def_1070 (+ S_58 .def_471))))))) (and .def_541 (and .def_491 (and .def_85 (and .def_243 (and .def_206 (and .def_262 (and .loc.14 (and .loc.13 (and .def_79 (and .def_186 (and .loc.9 (and .loc.8 (and .def_257 (and .def_184 (and .def_181 (and .def_178 (and .def_767 (and .def_304 (and .def_912 (and .def_635 (and .def_465 (and .def_175 (and .def_172 (and .def_169 (and .def_166 (and .def_163 (and .def_160 (and .def_460 (and .def_254 (and .def_157 (and .def_249 (and .def_154 (and .def_151 (and .def_148 (and .def_145 (and .def_142 .def_1078)))))))))))))))))))))))))))))))))))))) (and .def_606 (and .def_541 (and .def_85 (and .def_243 (and .def_206 (and .def_262 (and .loc.14 (and .loc.13 (and .def_81 (and .loc.9 (and .loc.7 (and .loc.6 (and .def_257 (and .def_184 (and .def_181 (and .def_178 (and .def_767 (and .def_304 (and .def_912 .def_1135)))))))))))))))))))) (and .def_541 (and .def_85 (and .def_206 (and .def_265 (and .loc.14 (and .loc.12 (and .loc.11 (and .def_81 (and .def_186 (and .loc.9 (and .loc.7 (and .def_257 (and .def_184 (and .def_181 (and .def_178 (and .def_767 (and .def_304 (and .def_912 (and .def_468 (and .def_635 (and .def_465 (and .def_175 (and .def_1064 (and .def_172 (and .def_169 (and .def_166 (and .def_163 (and .def_160 (and .def_460 (and .def_254 (and .def_157 (and .def_249 (and .def_154 (and .def_151 (and .def_148 (and .def_145 (and .def_142 (and .def_1004 .def_1066))))))))))))))))))))))))))))))))))))))) (and .def_541 (and .def_456 (and .def_85 (and .def_206 (and .def_265 (and .loc.14 (and .loc.12 (and .loc.11 (and .def_81 (and .def_186 (and .loc.9 (and .loc.7 (and .def_257 (and .def_184 (and .def_181 (and .def_178 (and .def_767 (and .def_304 (and .def_912 (and .def_468 .def_1135))))))))))))))))))))) (and .def_1217 .def_1219)) (and (or L2_34 (and .def_479 (= .x.3590 (store D_58 D1_58 (store .def_1070 (+ S_58 .def_471) (select .def_1223 (+ W1_58 .def_471))))))) (and .def_541 (and .def_491 (and .def_85 (and .def_206 (and .def_265 (and .def_262 (and .loc.14 (and .loc.12 (and .def_81 (and .def_186 (and .loc.9 (and .loc.7 (and .def_257 (and .def_184 (and .def_181 (and .def_178 (and .def_767 (and .def_304 (and .def_912 (and .def_635 (and .def_465 (and .def_175 (and .def_1064 (and .def_172 (and .def_169 (and .def_166 (and .def_163 (and .def_160 (and .def_460 (and .def_254 (and .def_157 (and .def_249 (and .def_154 (and .def_151 (and .def_148 (and .def_145 (and .def_142 (and .def_1066 .def_1078)))))))))))))))))))))))))))))))))))))))) (and .def_606 (and .def_541 (and .def_85 (and .def_206 (and .def_265 (and .def_262 (and .loc.14 (and .loc.12 (and .def_81 (and .def_79 (and .loc.9 (and .loc.6 (and .def_257 (and .def_184 (and .def_181 (and .def_178 (and .def_767 (and .def_304 (and .def_912 .def_1290)))))))))))))))))))) (and .def_541 (and .def_85 (and .def_243 (and .def_206 (and .def_265 (and .loc.14 (and .loc.11 (and .def_81 (and .def_79 (and .def_186 (and .loc.9 (and .def_257 (and .def_184 (and .def_181 (and .def_178 (and .def_767 (and .def_304 (and .def_912 (and .def_468 (and .def_635 (and .def_465 (and .def_175 (and .def_1064 (and .def_172 (and .def_169 (and .def_166 (and .def_163 (and .def_160 .def_1322))))))))))))))))))))))))))))) (and .def_541 (and .def_456 (and .def_85 (and .def_243 (and .def_206 (and .def_265 (and .loc.14 (and .loc.11 (and .def_81 (and .def_79 (and .def_186 (and .loc.9 (and .def_257 (and .def_184 (and .def_181 (and .def_178 (and .def_767 (and .def_304 (and .def_912 (and .def_468 .def_1290))))))))))))))))))))) (and .def_1374 .def_1376)) (and (or L2_34 (and .def_479 (= .x.3590 (store D_58 S1_58 (store .def_1223 (+ W1_58 .def_471) (select .def_1380 (+ Q1_58 .def_471))))))) (and .def_541 (and .def_491 (and .def_85 (and .def_243 (and .def_206 (and .def_265 (and .def_262 (and .loc.14 (and .def_81 (and .def_79 (and .def_186 (and .loc.9 (and .def_257 (and .def_184 (and .def_181 (and .def_178 (and .def_767 (and .def_304 (and .def_912 (and .def_635 (and .def_465 (and .def_175 (and .def_1064 (and .def_172 (and .def_169 (and .def_166 (and .def_163 (and .def_160 .def_1398)))))))))))))))))))))))))))))) (and .def_606 (and .def_541 (and .def_85 (and .def_83 (and .def_243 (and .def_206 (and .def_265 (and .def_262 (and .loc.14 (and .loc.8 (and .loc.7 (and .loc.6 (and .def_257 (and .def_184 (and .def_181 (and .def_178 (and .def_1374 (and .def_767 (and .def_304 (and .def_912 .def_1438))))))))))))))))))))) (and .def_541 (and .def_85 (and .def_299 (and .def_83 (and .def_206 (and .loc.13 (and .loc.12 (and .loc.11 (and .def_186 (and .loc.8 (and .loc.7 (and .def_257 (and .def_184 (and .def_181 (and .def_178 (and .def_1374 (and .def_767 (and .def_304 (and .def_912 (and .def_468 (and .def_635 (and .def_465 (and .def_175 (and .def_1064 (and .def_172 (and .def_169 (and .def_166 (and .def_163 (and .def_160 .def_1460)))))))))))))))))))))))))))))) (and .def_541 (and .def_456 (and .def_85 (and .def_299 (and .def_83 (and .def_206 (and .loc.13 (and .loc.12 (and .loc.11 (and .def_186 (and .loc.8 (and .loc.7 (and .def_257 (and .def_184 (and .def_181 (and .def_178 (and .def_1374 (and .def_767 (and .def_304 (and .def_912 (and .def_468 .def_1438)))))))))))))))))))))) (and .def_1514 .def_1516)) (and (or L2_34 (and .def_479 (= .x.3590 (store D_58 N_58 (store .def_1380 (+ Q1_58 .def_471) (select .def_1520 (+ M_58 .def_471))))))) (and .def_541 (and .def_491 (and .def_85 (and .def_299 (and .def_83 (and .def_206 (and .def_262 (and .loc.13 (and .loc.12 (and .def_186 (and .loc.8 (and .loc.7 (and .def_257 (and .def_184 (and .def_181 (and .def_178 (and .def_1374 (and .def_767 (and .def_304 (and .def_912 (and .def_635 (and .def_465 (and .def_175 (and .def_1064 (and .def_172 (and .def_169 (and .def_166 (and .def_163 (and .def_160 .def_1527))))))))))))))))))))))))))))))) (and .def_606 (and .def_541 (and .def_85 (and .def_299 (and .def_83 (and .def_206 (and .def_262 (and .loc.13 (and .loc.12 (and .def_79 (and .loc.8 (and .loc.6 (and .def_1514 (and .def_257 (and .def_184 (and .def_181 (and .def_178 (and .def_1374 (and .def_767 (and .def_304 (and .def_912 .def_1568)))))))))))))))))))))) (and .def_541 (and .def_85 (and .def_299 (and .def_83 (and .def_243 (and .def_206 (and .loc.13 (and .loc.11 (and .def_79 (and .def_186 (and .loc.8 (and .def_1514 (and .def_257 (and .def_184 (and .def_181 (and .def_178 (and .def_1374 (and .def_767 (and .def_304 (and .def_912 (and .def_468 (and .def_635 (and .def_465 (and .def_175 (and .def_1064 (and .def_172 (and .def_169 (and .def_166 (and .def_163 (and .def_160 (and .def_1460 .def_1516)))))))))))))))))))))))))))))))) (and .def_541 (and .def_456 (and .def_85 (and .def_299 (and .def_83 (and .def_243 (and .def_206 (and .loc.13 (and .loc.11 (and .def_79 (and .def_186 (and .loc.8 (and .def_1514 (and .def_257 (and .def_184 (and .def_181 (and .def_178 (and .def_1374 (and .def_767 (and .def_304 (and .def_912 (and .def_468 .def_1568))))))))))))))))))))))) (and .def_1647 .def_1649)) (and (or L2_34 (and .def_479 (= .x.3590 (store D_58 R1_58 (store .def_1520 (+ M_58 .def_471) (select .def_276 (+ F1_58 .def_471))))))) (and .def_541 (and .def_491 (and .def_85 (and .def_299 (and .def_83 (and .def_243 (and .def_206 (and .def_262 (and .loc.13 (and .def_79 (and .def_186 (and .loc.8 (and .def_1514 (and .def_257 (and .def_184 (and .def_181 (and .def_178 (and .def_1374 (and .def_767 (and .def_304 (and .def_912 (and .def_635 (and .def_465 (and .def_175 (and .def_1064 (and .def_172 (and .def_169 (and .def_166 (and .def_163 (and .def_160 (and .def_1516 .def_1527))))))))))))))))))))))))))))))))) (and .def_606 (and .def_541 (and .def_85 (and .def_299 (and .def_83 (and .def_243 (and .def_206 (and .def_262 (and .loc.13 (and .def_81 (and .loc.7 (and .loc.6 (and .def_1647 (and .def_1514 (and .def_257 (and .def_184 (and .def_181 (and .def_178 (and .def_1374 (and .def_767 (and .def_304 (and .def_912 .def_1703))))))))))))))))))))))) (and .def_541 (and .def_85 (and .def_299 (and .def_83 (and .def_206 (and .def_265 (and .loc.12 (and .loc.11 (and .def_81 (and .def_186 (and .loc.7 (and .def_1647 (and .def_1514 (and .def_257 (and .def_184 (and .def_181 (and .def_178 (and .def_1374 (and .def_767 (and .def_304 (and .def_912 (and .def_468 (and .def_635 (and .def_465 (and .def_175 (and .def_1064 (and .def_172 (and .def_169 (and .def_166 (and .def_163 (and .def_160 (and .def_1516 (and .def_1376 (and .def_1322 .def_1649))))))))))))))))))))))))))))))))))) (and (or L2_34 .def_1762) (and .def_541 (and .def_85 (and .def_299 (and .def_83 (and .def_206 (and .def_265 (and .loc.12 (and .loc.11 (and .def_81 (and .def_186 (and .loc.7 (and .def_1647 (and .def_1514 (and .def_257 (and .def_184 (and .def_181 (and .def_178 (and .def_1374 (and .def_767 (and .def_304 (and .def_912 (and .def_468 .def_1703)))))))))))))))))))))))) (and (= J1_58 .x.3622) (and (= U_58 .x.3607) (and (= O_58 .x.3601) (= R_58 .x.3604))))) (and (or L2_34 (and (= .x.3590 (store .def_1805 V_58 (store (select .def_1805 V_58) (+ (* 4 O_58) K1_58) R_58))) (and (<= (- 2147483648) J1_58) (and (<= (- 2147483648) R_58) (and (not .def_1762) (and (<= R_58 2147483647) (<= J1_58 2147483647))))))) (and (or K2_58 (= (+ O_58 (* (- 1) .x.3601)) (- 1))) (and .def_541 (and .def_85 (and .def_299 (and .def_83 (and .def_206 (and .def_265 (and .def_262 (and .loc.12 (and .def_81 (and .def_186 (and .loc.7 (and .def_1647 (and .def_1514 (and .def_257 (and .def_184 (and .def_181 (and .def_178 (and .def_1374 (and .def_767 (and .def_304 (and .def_912 (and .def_468 (and .def_635 (and .def_465 (and .def_175 (and .def_1064 (and .def_172 (and .def_169 (and .def_166 (and .def_163 (and .def_160 (and .def_1516 (and .def_1376 (and .def_1398 .def_1649))))))))))))))))))))))))))))))))))))) (and (= J_58 .x.3596) (and (= F_58 .x.3592) (= H_58 .x.3594)))) (and (or L2_34 (and (and (= .x.3596 0) (= .x.3592 0)) (= L2_0 (store B_58 0 0)))) (and (or K2_58 (and (and (and (and (and (and (and (and (and (and (and (and (and (and (and (and (and (and (and (and (and (and (and (and (and (and (and (and (and (and (and (and (and (and (and (and (and (and (and (and (and (and (not (<= .x.3587 .x.3600)) (not (<= .x.3587 .x.3598))) (not (<= .x.3587 .x.3606))) (not (<= .x.3587 .x.3608))) (not (<= .x.3587 .x.3616))) (not (<= .x.3587 .x.3617))) (not (<= .x.3587 .x.3630))) (not (<= .x.3587 .x.3631))) (not (<= .x.3587 .x.3632))) (not (<= .x.3587 .x.3644))) (= .x.3599 0)) (= .x.3601 0)) (= .x.3605 0)) (not (= .x.3606 0))) (not (= .x.3608 0))) (= .x.3609 0)) (= .x.3615 0)) (not (= .x.3616 0))) (= .x.3618 0)) (= .x.3629 0)) (not (= .x.3631 0))) (not (= .x.3632 0))) (= .x.3633 0)) (= .x.3635 0)) (= .x.3643 0)) (not (= .x.3644 0))) (not (= .x.3598 0))) (not (= .x.3600 0))) (not (= .x.3617 0))) (= .x.3623 0)) (not (= .x.3630 0))) (= (select L2_0 .x.3617) 0)) (= (select .def_1970 .x.3606) 0)) (= (select .def_1974 .x.3632) 0)) (= (select .def_1978 .x.3644) 0)) (= (select .def_1983 .x.3598) 0)) (= (select .def_1966 .x.3630) 0)) (= (select .def_1967 .x.3600) 0)) (= (select .def_1968 .x.3631) 0)) (= (select .def_1969 .x.3616) 0)) (= (select .def_1982 .x.3608) 0)) (= .x.3588 (store .def_1983 .x.3598 1))) (= .x.3594 (store (store (store (store (store (store (store (store (store (store H_58 .x.3617 400000) .x.3630 400000) .x.3600 400000) .x.3631 400000) .x.3616 400000) .x.3606 400000) .x.3632 400000) .x.3644 400000) .x.3608 400000) .x.3598 400000)))) (and .def_541 (and .def_85 (and .def_299 (and .def_83 (and .def_206 (and .def_265 (and .def_262 (and .loc.12 (and .def_81 (and .def_79 (and .loc.6 (and .def_257 (and .def_254 (and .def_154 .def_462)))))))))))))))))))))))))))))))))))))))))))))))))))))))))))))))))))))))))))))))))))))))))))))))))))))))))))))))))))))))))))))))))))))))))))))) (state |.x.3587| |.x.3588| |.x.3589| |.x.3590| |.x.3591| |.x.3592| |.x.3593| |.x.3594| |.x.3595| |.x.3596| |.x.3597| |.x.3598| |.x.3599| |.x.3600| |.x.3601| |.x.3602| |.x.3603| |.x.3604| |.x.3605| |.x.3606| |.x.3607| |.x.3608| |.x.3609| |.x.3610| |.x.3611| |.x.3612| |.x.3613| |.x.3614| |.x.3615| |.x.3616| |.x.3617| |.x.3618| |.x.3619| |.x.3620| |.x.3621| |.x.3622| |.x.3623| |.x.3624| |.x.3625| |.x.3626| |.x.3627| |.x.3628| |.x.3629| |.x.3630| |.x.3631| |.x.3632| |.x.3633| |.x.3634| |.x.3635| |.x.3636| |.x.3637| |.x.3638| |.x.3639| |.x.3640| |.x.3641| |.x.3642| |.x.3643| |.x.3644| |.x.3645| |.x.3646| |.x.3647| |.x.3648| |K2_58| |.loc.11| |.loc.12| |.loc.13| |.loc.14| |.loc.15| |.xtv.1|))))
(assert (forall ((|A_58| Int) (|B_58| (Array Int Int)) (|C_58| (Array Int Int)) (|D_58| (Array Int Int)) (|E_58| (Array Int Int)) (|F_58| Int) (|G_58| Int) (|H_58| (Array Int Int)) (|I_58| (Array Int Int)) (|J_58| Int) (|K_58| Int) (|L_58| Int) (|M_58| Int) (|N_58| Int) (|O_58| Int) (|P_58| Int) (|Q_58| Int) (|R_58| Int) (|S_58| Int) (|T_58| Int) (|U_58| Int) (|V_58| Int) (|W_58| Int) (|X_58| Int) (|Y_58| Int) (|Z_58| Int) (|A1_58| Int) (|B1_58| Int) (|C1_58| Int) (|D1_58| Int) (|E1_58| Int) (|F1_58| Int) (|G1_58| Int) (|H1_58| Int) (|I1_58| Int) (|J1_58| Int) (|K1_58| Int) (|L1_58| Int) (|M1_58| Int) (|N1_58| Int) (|O1_58| Int) (|P1_58| Int) (|Q1_58| Int) (|R1_58| Int) (|S1_58| Int) (|T1_58| Int) (|U1_58| Int) (|V1_58| Int) (|W1_58| Int) (|X1_58| Int) (|Y1_58| Int) (|Z1_58| Int) (|A2_58| Int) (|B2_58| Int) (|C2_58| Int) (|D2_58| Int) (|E2_58| Int) (|F2_58| Int) (|G2_58| Int) (|H2_58| Int) (|I2_58| Int) (|J2_58| Int) (|L2_34| Bool) (|.loc.6| Bool) (|.loc.7| Bool) (|.loc.8| Bool) (|.loc.9| Bool) (|.loc.10| Bool) (|L2_0| (Array Int Int)) (|.x.3597| Int) (|.x.3595| (Array Int Int)) (|.x.3593| Int) (|.x.3591| (Array Int Int)) (|.x.3587| Int) (|.x.3589| (Array Int Int)) (|.x.3588| (Array Int Int)) (|K2_58| Bool) (|.x.3598| Int) (|.x.3599| Int) (|.x.3600| Int) (|.x.3605| Int) (|.x.3606| Int) (|.x.3608| Int) (|.x.3609| Int) (|.x.3615| Int) (|.x.3616| Int) (|.x.3617| Int) (|.x.3618| Int) (|.x.3620| Int) (|.x.3623| Int) (|.x.3629| Int) (|.x.3630| Int) (|.x.3631| Int) (|.x.3632| Int) (|.x.3633| Int) (|.x.3635| Int) (|.x.3643| Int) (|.x.3644| Int) (|.x.3645| Int) (|.loc.12| Bool) (|.x.3621| Int) (|.x.3602| Int) (|.x.3624| Int) (|.x.3646| Int) (|.loc.14| Bool) (|.loc.11| Bool) (|.loc.13| Bool) (|.x.3640| Int) (|.x.3603| Int) (|.x.3625| Int) (|.x.3590| (Array Int Int)) (|.x.3636| Int) (|.x.3638| Int) (|.loc.15| Bool) (|.x.3637| Int) (|.x.3610| Int) (|.x.3641| Int) (|.x.3612| Int) (|.x.3639| Int) (|.x.3611| Int) (|.x.3634| Int) (|.x.3614| Int) (|.x.3619| Int) (|.x.3613| Int) (|.x.3642| Int) (|.x.3627| Int) (|.x.3647| Int) (|.x.3628| Int) (|.x.3648| Int) (|.x.3626| Int) (|.x.3622| Int) (|.x.3607| Int) (|.x.3601| Int) (|.x.3604| Int) (|.x.3596| Int) (|.x.3592| Int) (|.x.3594| (Array Int Int)) (|.xtv.1| (Array Int Int))) (=> (state |A_58| |B_58| |C_58| |D_58| |E_58| |F_58| |G_58| |H_58| |I_58| |J_58| |K_58| |L_58| |M_58| |N_58| |O_58| |P_58| |Q_58| |R_58| |S_58| |T_58| |U_58| |V_58| |W_58| |X_58| |Y_58| |Z_58| |A1_58| |B1_58| |C1_58| |D1_58| |E1_58| |F1_58| |G1_58| |H1_58| |I1_58| |J1_58| |K1_58| |L1_58| |M1_58| |N1_58| |O1_58| |P1_58| |Q1_58| |R1_58| |S1_58| |T1_58| |U1_58| |V1_58| |W1_58| |X1_58| |Y1_58| |Z1_58| |A2_58| |B2_58| |C2_58| |D2_58| |E2_58| |F2_58| |G2_58| |H2_58| |I2_58| |J2_58| |L2_34| |.loc.6| |.loc.7| |.loc.8| |.loc.9| |.loc.10| |L2_0|) (not (and L2_34 (and .loc.10 (and .loc.9 (and (not .loc.8) (and .loc.7 (not .loc.6))))))))))
(check-sat)
